db/data/8830107871762989411966212372734919546.z3.out
sat
-------------------
364.882993526
